NAME : P-n21-k2.211.tour
COMMENT : Cost = 0_211
COMMENT : Found by LKH [Keld Helsgaun] Wed Sep 13 11:52:33 2017
TYPE : TOUR
DIMENSION : 22
TOUR_SECTION
1
7
8
3
14
10
18
15
6
21
22
5
12
16
13
4
20
19
9
11
2
17
-1
EOF
